
--- Job WS.gms Start 04/19/25 08:21:58 49.4.0 6fb2fe8b WEX-WEI x86 64bit/MS Windows
--- Applying:
    C:\GAMS\49\gmsprmNT.txt
--- GAMS Parameters defined
    Input D:\gams\Project\WS.gms
    PageSize 0
    ScrDir D:\gams\Project\225a\
    SysDir C:\GAMS\49\
    LogOption 3
    ErrMsg 1
    ErrorLog 99
    IDE 1
    LstTitleLeftAligned 1
Licensee: Academic User                                  G250418+0003Ac-GEN
          xskurl02@vutbr.cz                                       CLA109379
          C:\GAMS\49\gamslice.txt
          node:42640501 v:2                                                
          Community license for demonstration and instructional purposes only
System information: 8 physical cores and 32 Gb memory detected
GAMS 49.4.0   Copyright (C) 1987-2025 GAMS Development. All rights reserved
--- Starting compilation
--- WS.gms(40) 3 Mb
--- Starting execution: elapsed 0:00:00.012
--- WS.gms(21) 4 Mb
--- Generating LP model vyroba
--- WS.gms(28) 4 Mb
---   5 rows  4 columns  16 non-zeroes
--- Range statistics (absolute non-zero finite values)
--- RHS       [min, max] : [ 5.400E+03, 1.040E+04] - Zero values observed as well
--- Bound     [min, max] : [        NA,        NA] - Zero values observed as well
--- Matrix    [min, max] : [ 1.000E+00, 1.550E+02]
--- Executing CPLEX (Solvelink=2): elapsed 0:00:00.021

IBM ILOG CPLEX   49.4.0 6fb2fe8b Apr 6, 2025           WEI x86 64bit/MS Window

*** This solver runs with a community license. No commercial use.
--- GMO setup time: 0.00s
--- GMO memory 0.50 Mb (peak 0.50 Mb)
--- Dictionary memory 0.00 Mb
--- Cplex 22.1.2.0 link memory 0.00 Mb (peak 0.00 Mb)
--- Starting Cplex

Version identifier: 22.1.2.0 | 2024-11-25 | 0edbb82fd
CPXPARAM_Advance                                 0
CPXPARAM_Simplex_Display                         2
CPXPARAM_MIP_Display                             4
CPXPARAM_MIP_Pool_Capacity                       0
CPXPARAM_MIP_Tolerances_AbsMIPGap                0
Tried aggregator 1 time.
LP Presolve eliminated 0 rows and 1 columns.
Reduced LP has 4 rows, 3 columns, and 12 nonzeros.
Presolve time = 0.00 sec. (0.00 ticks)

Iteration      Dual Objective            In Variable           Out Variable
     1 sI            0.000000                   x(3)          omez(3) slack
     2           42514.285714          omez(3) slack          omez(1) slack
     3           41850.000000          omez(1) slack          omez(4) slack

--- LP status (1): optimal.
--- Cplex Time: 0.00sec (det. 0.01 ticks)


Optimal solution found
Objective:        41850.000000

--- Reading solution for model vyroba
--- Executing after solve: elapsed 0:00:00.059
--- WS.gms(40) 4 Mb
--- Putfile out D:\gams\Project\Vysledky.txt
*** Status: Normal completion
--- Job WS.gms Stop 04/19/25 08:21:58 elapsed 0:00:00.060
